38 38
19
3 3   4 23
3 4   8 19
3 5   4 26
3 6   8 0 
3 7   4 31
3 8   35 9 
3 9   35 0 
3 10  35 17
3 11  35 27
3 13  8 6 
4 3   4 8 
4 5   0 27
4 6   0 32
4 8   4 0 
4 11  0 0 
4 12  4 11
4 15  7 23
4 16  0 11
24 38  11 0 
